8 12
10 14
14 7
12 15
6 18
10 11
14 10
15 7
13 10
8 7
5 8
5 7
5 18
14 9
11 10
14 3
9 16
15 19
8 17
13 18
5 8
11 19
9 7
11 7
8 4
15 17
6 7
6 11
13 17
9 10
13 9
12 11
8 18
9 3
6 3
13 14
14 10
13 5
8 16
14 6
12 17
12 13
7 11
8 10
12 6
15 4
10 17
6 4
5 9
15 11
8 11
12 4
6 15
6 5
9 9
8 3
7 6
6 17
9 15
14 16
11 11
9 6
5 14
6 9
5 14
9 5
15 17
5 11
10 5
8 20
12 11
14 3
9 17
6 7
8 3
7 12
7 14
10 16
12 8
6 11
7 11
6 17
11 5
15 12
7 5
6 5
8 7
6 12
10 12
15 9
9 17
9 16
7 9
6 19
12 18
10 5
14 16
6 3
11 16
5 20